NAME: kroB100
COMMENT: Local search tour for kroB100 (27791.47150700722)
TYPE: TOUR
DIMENSION: 100
TOUR_SECTION: 1 90 46 25 9 34 72 37 88 23 22 55 50 77 24 18 36 96 92 19 44 41 17 45 16 14 42 2 78 13 63 31 48 51 82 64 33 15 6 83 4 66 74 60 87 89 43 52 54 58 84 7 57 94 35 61 27 71 12 98 32 29 8 99 59 76 97 91 28 3 11 93 85 73 53 70 39 40 67 5 62 69 26 100 56 81 79 47 65 80 20 38 75 30 49 86 68 10 21 95 -1
EOF